p cnf 872 2760
a 2 3 4 5 6 7 8 9 10 11 15 20 22 24 25 26 29 31 33 34 36 38 40 41 43 45 47 49 51 53 55 58 59 66 68 72 76 78 80 84 91 96 101 107 108 112 115 116 125 130 133 134 141 142 146 150 151 154 158 162 164 166 168 170 171 175 179 181 185 189 194 196 200 0
e 1 12 13 14 16 17 18 19 21 23 27 28 30 32 35 37 39 42 44 46 48 50 52 54 56 57 60 61 62 63 64 65 67 69 70 71 73 74 75 77 79 81 82 83 85 86 87 88 89 90 92 93 94 95 97 98 99 100 102 103 104 105 106 109 110 111 113 114 117 118 119 120 121 122 123 124 126 127 128 129 131 132 135 136 137 138 139 140 143 144 145 147 148 149 152 153 155 156 157 159 160 161 163 165 167 169 172 173 174 176 177 178 180 182 183 184 186 187 188 190 191 192 193 195 197 198 199 201 202 203 204 205 206 207 208 209 210 211 212 213 214 215 216 217 218 219 220 221 222 223 224 225 226 227 228 229 230 231 232 233 234 235 236 237 238 239 240 241 242 243 244 245 246 247 248 249 250 251 252 253 254 255 256 257 258 259 260 261 262 263 264 265 266 267 268 269 270 271 272 273 274 275 276 277 278 279 280 281 282 283 284 285 286 287 288 289 290 291 292 293 294 295 296 297 298 299 300 301 302 303 304 305 306 307 308 309 310 311 312 313 314 315 316 317 318 319 320 321 322 323 324 325 326 327 328 329 330 331 332 333 334 335 336 337 338 339 340 341 342 343 344 345 346 347 348 349 350 351 352 353 354 355 356 357 358 359 360 361 362 363 364 365 366 367 368 369 370 371 372 373 374 375 376 377 378 379 380 381 382 383 384 385 386 387 388 389 390 391 392 393 394 395 396 397 398 399 400 401 402 403 404 405 406 407 408 409 410 411 412 413 414 415 416 417 418 419 420 421 422 423 424 425 426 427 428 429 430 431 432 433 434 435 436 437 438 439 440 441 442 443 444 445 446 447 448 449 450 451 452 453 454 455 456 457 458 459 460 461 462 463 464 465 466 467 468 469 470 471 472 473 474 475 476 477 478 479 480 481 482 483 484 485 486 487 488 489 490 491 492 493 494 495 496 497 498 499 500 501 502 503 504 505 506 507 508 509 510 511 512 513 514 515 516 517 518 519 520 521 522 523 524 525 526 527 528 529 530 531 532 533 534 535 536 537 538 539 540 541 542 543 544 545 546 547 548 549 550 551 552 553 554 555 556 557 558 559 560 561 562 563 564 565 566 567 568 569 570 571 572 573 574 575 576 577 578 579 580 581 582 583 584 585 586 587 588 589 590 591 592 593 594 595 596 597 598 599 600 601 602 603 604 605 606 607 608 609 610 611 612 613 614 615 616 617 618 619 620 621 622 623 624 625 626 627 628 629 630 631 632 633 634 635 636 637 638 639 640 641 642 643 644 645 646 647 648 649 650 651 652 653 654 655 656 657 658 659 660 661 662 663 664 665 666 667 668 669 670 671 672 673 674 675 676 677 678 679 680 681 682 683 684 685 686 687 688 689 690 691 692 693 694 695 696 697 698 699 700 701 702 703 704 705 706 707 708 709 710 711 712 713 714 715 716 717 718 719 720 721 722 723 724 725 726 727 728 729 730 731 732 733 734 735 736 737 738 739 740 741 742 743 744 745 746 747 748 749 750 751 752 753 754 755 756 757 758 759 760 761 762 763 764 765 766 767 768 769 770 771 772 773 774 775 776 777 778 779 780 781 782 783 784 785 786 787 788 789 790 791 792 793 794 795 796 797 798 799 800 801 802 803 804 805 806 807 808 809 810 811 812 813 814 815 816 817 818 819 820 821 822 823 824 825 826 827 828 829 830 831 832 833 834 835 836 837 838 839 840 841 842 843 844 845 846 847 848 849 850 851 852 853 854 855 856 857 858 859 860 861 862 863 864 865 866 867 868 869 870 871 872 0
1 0
10 -12 0
11 -12 0
-10 -11 12 0
10 -13 0
-11 -13 0
-10 11 13 0
10 14 0
-12 14 0
-13 14 0
-10 12 13 -14 0
-15 16 0
15 16 0
9 -17 0
14 -17 0
16 -17 0
-9 -14 -16 17 0
-9 -18 0
14 -18 0
9 -14 18 0
-17 19 0
-18 19 0
17 18 -19 0
-20 21 0
20 21 0
-22 23 0
22 23 0
25 -27 0
-26 -27 0
-25 26 27 0
25 28 0
-27 28 0
-25 27 -28 0
-29 30 0
29 30 0
30 -32 0
31 -32 0
-30 -31 32 0
-34 35 0
34 35 0
35 -37 0
-36 -37 0
-35 36 37 0
35 -39 0
36 -39 0
38 -39 0
-35 -36 -38 39 0
35 -42 0
36 -42 0
-38 -42 0
40 -42 0
41 -42 0
-35 -36 38 -40 -41 42 0
35 -44 0
36 -44 0
-38 -44 0
40 -44 0
-41 -44 0
-43 -44 0
-35 -36 38 -40 41 43 44 0
35 -46 0
36 -46 0
-38 -46 0
-40 -46 0
-45 -46 0
-35 -36 38 40 45 46 0
35 -48 0
36 -48 0
-38 -48 0
-40 -48 0
45 -48 0
47 -48 0
-35 -36 38 40 -45 -47 48 0
35 -50 0
36 -50 0
-38 -50 0
40 -50 0
-41 -50 0
43 -50 0
49 -50 0
-35 -36 38 -40 41 -43 -49 50 0
35 -52 0
36 -52 0
-38 -52 0
40 -52 0
-41 -52 0
43 -52 0
-49 -52 0
51 -52 0
-35 -36 38 -40 41 -43 49 -51 52 0
-53 54 0
53 54 0
35 -56 0
36 -56 0
-38 -56 0
-40 -56 0
45 -56 0
-47 -56 0
54 -56 0
55 -56 0
-35 -36 38 40 -45 47 -54 -55 56 0
35 -57 0
36 -57 0
-38 -57 0
-40 -57 0
45 -57 0
-47 -57 0
54 -57 0
-55 -57 0
-35 -36 38 40 -45 47 -54 55 57 0
58 -60 0
59 -60 0
-58 -59 60 0
58 -61 0
-59 -61 0
-58 59 61 0
58 62 0
-60 62 0
-61 62 0
-58 60 61 -62 0
35 -63 0
36 -63 0
-38 -63 0
40 -63 0
-41 -63 0
43 -63 0
-49 -63 0
-51 -63 0
62 -63 0
-35 -36 38 -40 41 -43 49 51 -62 63 0
-37 64 0
-39 64 0
-42 64 0
-44 64 0
-46 64 0
-48 64 0
-50 64 0
-52 64 0
-56 64 0
-57 64 0
-63 64 0
37 39 42 44 46 48 50 52 56 57 63 -64 0
30 -65 0
-31 -65 0
-33 -65 0
64 -65 0
-30 31 33 -64 65 0
30 -67 0
-31 -67 0
33 -67 0
-66 -67 0
-30 31 -33 66 67 0
30 -69 0
-31 -69 0
33 -69 0
66 -69 0
-68 -69 0
-30 31 -33 -66 68 69 0
30 -70 0
-31 -70 0
33 -70 0
66 -70 0
68 -70 0
-30 31 -33 -66 -68 70 0
-65 71 0
-67 71 0
-69 71 0
-70 71 0
65 67 69 70 -71 0
71 -73 0
72 -73 0
-71 -72 73 0
71 -74 0
-72 -74 0
-71 72 74 0
-32 75 0
-73 75 0
-74 75 0
32 73 74 -75 0
-76 77 0
76 77 0
24 -79 0
28 -79 0
75 -79 0
77 -79 0
78 -79 0
-24 -28 -75 -77 -78 79 0
-80 81 0
80 81 0
24 -82 0
28 -82 0
75 -82 0
77 -82 0
-78 -82 0
81 -82 0
-24 -28 -75 -77 78 -81 82 0
-79 83 0
-82 83 0
79 82 -83 0
83 -85 0
84 -85 0
-83 -84 85 0
83 -86 0
-84 -86 0
-83 84 86 0
24 87 0
-85 87 0
-86 87 0
-24 85 86 -87 0
8 -88 0
19 -88 0
21 -88 0
23 -88 0
87 -88 0
-8 -19 -21 -23 -87 88 0
-8 -89 0
19 -89 0
21 -89 0
23 -89 0
8 -19 -21 -23 89 0
-88 90 0
-89 90 0
88 89 -90 0
91 92 0
-91 92 0
7 -93 0
90 -93 0
92 -93 0
-7 -90 -92 93 0
-7 -94 0
90 -94 0
7 -90 94 0
-93 95 0
-94 95 0
93 94 -95 0
96 97 0
-96 97 0
6 -98 0
95 -98 0
97 -98 0
-6 -95 -97 98 0
-6 -99 0
95 -99 0
6 -95 99 0
-98 100 0
-99 100 0
98 99 -100 0
101 102 0
-101 102 0
5 -103 0
100 -103 0
102 -103 0
-5 -100 -102 103 0
-5 -104 0
100 -104 0
5 -100 104 0
-103 105 0
-104 105 0
103 104 -105 0
4 -106 0
105 -106 0
-4 -105 106 0
108 -109 0
100 -109 0
102 -109 0
-108 -100 -102 109 0
-108 -110 0
100 -110 0
108 -100 110 0
-109 111 0
-110 111 0
109 110 -111 0
112 113 0
-112 113 0
107 -114 0
111 -114 0
113 -114 0
-107 -111 -113 114 0
116 117 0
-116 117 0
115 -118 0
111 -118 0
117 -118 0
-115 -111 -117 118 0
-115 -119 0
111 -119 0
115 -111 119 0
-118 120 0
-119 120 0
118 119 -120 0
-107 -121 0
120 -121 0
107 -120 121 0
-114 122 0
-121 122 0
114 121 -122 0
-4 -123 0
122 -123 0
4 -122 123 0
-106 124 0
-123 124 0
106 123 -124 0
125 126 0
-125 126 0
3 -127 0
124 -127 0
126 -127 0
-3 -124 -126 127 0
-3 -128 0
124 -128 0
3 -124 128 0
-127 129 0
-128 129 0
127 128 -129 0
130 131 0
-130 131 0
2 -132 0
129 -132 0
131 -132 0
-2 -129 -131 132 0
134 135 0
-134 135 0
133 -136 0
129 -136 0
135 -136 0
-133 -129 -135 136 0
-133 -137 0
129 -137 0
133 -129 137 0
-136 138 0
-137 138 0
136 137 -138 0
-2 -139 0
138 -139 0
2 -138 139 0
-132 140 0
-139 140 0
132 139 -140 0
141 -143 0
142 -143 0
-141 -142 143 0
141 -144 0
-142 -144 0
-141 142 144 0
-143 145 0
-144 145 0
143 144 -145 0
145 -147 0
146 -147 0
-145 -146 147 0
145 -148 0
-146 -148 0
-145 146 148 0
-147 149 0
-148 149 0
147 148 -149 0
149 -152 0
-150 -152 0
151 -152 0
-149 150 -151 152 0
149 -153 0
-150 -153 0
-151 -153 0
-149 150 151 153 0
149 -155 0
150 -155 0
154 -155 0
-149 -150 -154 155 0
149 -156 0
150 -156 0
-154 -156 0
-149 -150 154 156 0
-152 157 0
-153 157 0
-155 157 0
-156 157 0
152 153 155 156 -157 0
157 -159 0
158 -159 0
-157 -158 159 0
157 -160 0
-158 -160 0
-157 158 160 0
-159 161 0
-160 161 0
159 160 -161 0
161 -163 0
162 -163 0
-161 -162 163 0
161 -165 0
-162 -165 0
164 -165 0
-161 162 -164 165 0
161 -167 0
-162 -167 0
-164 -167 0
166 -167 0
-161 162 164 -166 167 0
161 -169 0
-162 -169 0
-164 -169 0
-166 -169 0
168 -169 0
-161 162 164 166 -168 169 0
161 -172 0
-162 -172 0
-164 -172 0
-166 -172 0
-168 -172 0
170 -172 0
171 -172 0
-161 162 164 166 168 -170 -171 172 0
161 -173 0
-162 -173 0
-164 -173 0
-166 -173 0
-168 -173 0
170 -173 0
-171 -173 0
-161 162 164 166 168 -170 171 173 0
-172 174 0
-173 174 0
172 173 -174 0
174 -176 0
175 -176 0
-174 -175 176 0
174 -177 0
-175 -177 0
-174 175 177 0
-176 178 0
-177 178 0
176 177 -178 0
178 -180 0
179 -180 0
-178 -179 180 0
161 -182 0
-162 -182 0
-164 -182 0
-166 -182 0
-168 -182 0
-170 -182 0
181 -182 0
-161 162 164 166 168 170 -181 182 0
161 -183 0
-162 -183 0
-164 -183 0
-166 -183 0
-168 -183 0
-170 -183 0
-181 -183 0
-161 162 164 166 168 170 181 183 0
-182 184 0
-183 184 0
182 183 -184 0
184 -186 0
185 -186 0
-184 -185 186 0
184 -187 0
-185 -187 0
-184 185 187 0
-186 188 0
-187 188 0
186 187 -188 0
188 -190 0
189 -190 0
-188 -189 190 0
178 -191 0
-179 -191 0
-178 179 191 0
188 -192 0
-189 -192 0
-188 189 192 0
-180 193 0
-190 193 0
-191 193 0
-192 193 0
180 190 191 192 -193 0
193 -195 0
-194 -195 0
-193 194 195 0
193 -197 0
194 -197 0
196 -197 0
-193 -194 -196 197 0
193 -198 0
194 -198 0
-196 -198 0
-193 -194 196 198 0
141 199 0
-163 199 0
-165 199 0
-167 199 0
-169 199 0
-195 199 0
-197 199 0
-198 199 0
-141 163 165 167 169 195 197 198 -199 0
-200 201 0
200 201 0
140 -202 0
199 -202 0
201 -202 0
-140 -199 -201 202 0
-15 203 0
15 203 0
9 -204 0
203 -204 0
-9 -203 204 0
-204 205 0
9 205 0
204 -9 -205 0
205 -206 0
-24 -206 0
-205 24 206 0
205 -207 0
30 -207 0
31 -207 0
-205 -30 -31 207 0
205 -208 0
30 -208 0
-31 -208 0
33 -208 0
66 -208 0
-68 -208 0
-205 -30 31 -33 -66 68 208 0
205 -209 0
30 -209 0
-31 -209 0
33 -209 0
66 -209 0
68 -209 0
-205 -30 31 -33 -66 -68 209 0
205 -210 0
30 -210 0
-31 -210 0
33 -210 0
-66 -210 0
-205 -30 31 -33 66 210 0
205 -211 0
34 -211 0
-205 -34 211 0
205 -212 0
-34 -212 0
-205 34 212 0
-211 213 0
-212 213 0
211 212 -213 0
-37 214 0
-39 214 0
-42 214 0
-44 214 0
-46 214 0
-48 214 0
-50 214 0
-52 214 0
37 39 42 44 46 48 50 52 -214 0
213 -215 0
214 -215 0
-213 -214 215 0
213 -216 0
35 -216 0
36 -216 0
-38 -216 0
40 -216 0
-41 -216 0
43 -216 0
-49 -216 0
-51 -216 0
62 -216 0
-213 -35 -36 38 -40 41 -43 49 51 -62 216 0
-56 217 0
-57 217 0
56 57 -217 0
213 -218 0
217 -218 0
-213 -217 218 0
-215 219 0
-216 219 0
-218 219 0
215 216 218 -219 0
219 -220 0
30 -220 0
-31 -220 0
-33 -220 0
64 -220 0
-219 -30 31 33 -64 220 0
-208 221 0
-209 221 0
-210 221 0
-220 221 0
208 209 210 220 -221 0
221 -222 0
71 -222 0
72 -222 0
-221 -71 -72 222 0
221 -223 0
71 -223 0
-72 -223 0
-221 -71 72 223 0
-207 224 0
-222 224 0
-223 224 0
207 222 223 -224 0
224 -225 0
24 -225 0
28 -225 0
75 -225 0
77 -225 0
78 -225 0
-224 -24 -28 -75 -77 -78 225 0
224 -226 0
24 -226 0
28 -226 0
75 -226 0
77 -226 0
-78 -226 0
81 -226 0
-224 -24 -28 -75 -77 78 -81 226 0
-225 227 0
-226 227 0
225 226 -227 0
-85 228 0
-86 228 0
85 86 -228 0
227 -229 0
228 -229 0
-227 -228 229 0
-206 230 0
-229 230 0
206 229 -230 0
8 -231 0
230 -231 0
-8 -230 231 0
-8 -232 0
205 -232 0
8 -205 232 0
-231 233 0
-232 233 0
231 232 -233 0
233 -234 0
-91 -234 0
-233 91 234 0
233 -235 0
91 -235 0
-233 -91 235 0
-234 236 0
-235 236 0
234 235 -236 0
7 -237 0
236 -237 0
-7 -236 237 0
-7 -238 0
233 -238 0
7 -233 238 0
-237 239 0
-238 239 0
237 238 -239 0
239 -240 0
-96 -240 0
-239 96 240 0
239 -241 0
96 -241 0
-239 -96 241 0
-240 242 0
-241 242 0
240 241 -242 0
6 -243 0
242 -243 0
-6 -242 243 0
-6 -244 0
239 -244 0
6 -239 244 0
-243 245 0
-244 245 0
243 244 -245 0
245 -246 0
-101 -246 0
-245 101 246 0
245 -247 0
101 -247 0
-245 -101 247 0
-246 248 0
-247 248 0
246 247 -248 0
5 -249 0
248 -249 0
-5 -248 249 0
-5 -250 0
245 -250 0
5 -245 250 0
-249 251 0
-250 251 0
249 250 -251 0
4 -252 0
251 -252 0
-4 -251 252 0
108 -253 0
248 -253 0
-108 -248 253 0
-108 -254 0
245 -254 0
108 -245 254 0
-253 255 0
-254 255 0
253 254 -255 0
255 -256 0
-112 -256 0
-255 112 256 0
255 -257 0
112 -257 0
-255 -112 257 0
-256 258 0
-257 258 0
256 257 -258 0
107 -259 0
258 -259 0
-107 -258 259 0
255 -260 0
-116 -260 0
-255 116 260 0
255 -261 0
116 -261 0
-255 -116 261 0
-260 262 0
-261 262 0
260 261 -262 0
115 -263 0
262 -263 0
-115 -262 263 0
-115 -264 0
255 -264 0
115 -255 264 0
-263 265 0
-264 265 0
263 264 -265 0
-107 -266 0
265 -266 0
107 -265 266 0
-259 267 0
-266 267 0
259 266 -267 0
-4 -268 0
267 -268 0
4 -267 268 0
-252 269 0
-268 269 0
252 268 -269 0
269 -270 0
-125 -270 0
-269 125 270 0
269 -271 0
125 -271 0
-269 -125 271 0
-270 272 0
-271 272 0
270 271 -272 0
3 -273 0
272 -273 0
-3 -272 273 0
-3 -274 0
269 -274 0
3 -269 274 0
-273 275 0
-274 275 0
273 274 -275 0
275 -276 0
-130 -276 0
-275 130 276 0
275 -277 0
130 -277 0
-275 -130 277 0
-276 278 0
-277 278 0
276 277 -278 0
2 -279 0
278 -279 0
-2 -278 279 0
275 -280 0
-134 -280 0
-275 134 280 0
275 -281 0
134 -281 0
-275 -134 281 0
-280 282 0
-281 282 0
280 281 -282 0
133 -283 0
282 -283 0
-133 -282 283 0
-133 -284 0
275 -284 0
133 -275 284 0
-283 285 0
-284 285 0
283 284 -285 0
-2 -286 0
285 -286 0
2 -285 286 0
-279 287 0
-286 287 0
279 286 -287 0
287 -288 0
-141 -288 0
-287 141 288 0
287 -289 0
141 -289 0
142 -289 0
-287 -141 -142 289 0
287 -290 0
141 -290 0
-142 -290 0
-287 -141 142 290 0
-289 291 0
-290 291 0
289 290 -291 0
291 -292 0
145 -292 0
146 -292 0
-291 -145 -146 292 0
291 -293 0
145 -293 0
-146 -293 0
-291 -145 146 293 0
-292 294 0
-293 294 0
292 293 -294 0
294 -295 0
157 -295 0
158 -295 0
-294 -157 -158 295 0
294 -296 0
157 -296 0
-158 -296 0
-294 -157 158 296 0
-295 297 0
-296 297 0
295 296 -297 0
-163 298 0
-165 298 0
-167 298 0
-169 298 0
163 165 167 169 -298 0
297 -299 0
298 -299 0
-297 -298 299 0
297 -300 0
161 -300 0
-162 -300 0
-164 -300 0
-166 -300 0
-168 -300 0
-170 -300 0
181 -300 0
-297 -161 162 164 166 168 170 -181 300 0
297 -301 0
161 -301 0
-162 -301 0
-164 -301 0
-166 -301 0
-168 -301 0
-170 -301 0
-181 -301 0
-297 -161 162 164 166 168 170 181 301 0
-300 302 0
-301 302 0
300 301 -302 0
302 -303 0
184 -303 0
185 -303 0
-302 -184 -185 303 0
302 -304 0
184 -304 0
-185 -304 0
-302 -184 185 304 0
-303 305 0
-304 305 0
303 304 -305 0
305 -306 0
188 -306 0
189 -306 0
-305 -188 -189 306 0
305 -307 0
188 -307 0
-189 -307 0
-305 -188 189 307 0
297 -308 0
161 -308 0
-162 -308 0
-164 -308 0
-166 -308 0
-168 -308 0
170 -308 0
171 -308 0
-297 -161 162 164 166 168 -170 -171 308 0
297 -309 0
161 -309 0
-162 -309 0
-164 -309 0
-166 -309 0
-168 -309 0
170 -309 0
-171 -309 0
-297 -161 162 164 166 168 -170 171 309 0
-308 310 0
-309 310 0
308 309 -310 0
310 -311 0
174 -311 0
175 -311 0
-310 -174 -175 311 0
310 -312 0
174 -312 0
-175 -312 0
-310 -174 175 312 0
-311 313 0
-312 313 0
311 312 -313 0
313 -314 0
178 -314 0
179 -314 0
-313 -178 -179 314 0
313 -315 0
178 -315 0
-179 -315 0
-313 -178 179 315 0
-306 316 0
-307 316 0
-314 316 0
-315 316 0
306 307 314 315 -316 0
-197 317 0
-198 317 0
197 198 -317 0
-195 318 0
-317 318 0
195 317 -318 0
316 -319 0
318 -319 0
-316 -318 319 0
-288 320 0
-299 320 0
-319 320 0
288 299 319 -320 0
-15 321 0
15 321 0
9 -322 0
321 -322 0
-9 -321 322 0
-322 323 0
9 323 0
322 -9 -323 0
323 -324 0
-24 -324 0
-323 24 324 0
323 -325 0
30 -325 0
31 -325 0
-323 -30 -31 325 0
323 -326 0
30 -326 0
-31 -326 0
33 -326 0
66 -326 0
-68 -326 0
-323 -30 31 -33 -66 68 326 0
323 -327 0
30 -327 0
-31 -327 0
33 -327 0
66 -327 0
68 -327 0
-323 -30 31 -33 -66 -68 327 0
323 -328 0
30 -328 0
-31 -328 0
33 -328 0
-66 -328 0
-323 -30 31 -33 66 328 0
323 -329 0
34 -329 0
-323 -34 329 0
323 -330 0
-34 -330 0
-323 34 330 0
-329 331 0
-330 331 0
329 330 -331 0
-37 332 0
-39 332 0
-42 332 0
-44 332 0
-46 332 0
-48 332 0
-50 332 0
-52 332 0
37 39 42 44 46 48 50 52 -332 0
331 -333 0
332 -333 0
-331 -332 333 0
331 -334 0
35 -334 0
36 -334 0
-38 -334 0
40 -334 0
-41 -334 0
43 -334 0
-49 -334 0
-51 -334 0
62 -334 0
-331 -35 -36 38 -40 41 -43 49 51 -62 334 0
331 -335 0
217 -335 0
-331 -217 335 0
-333 336 0
-334 336 0
-335 336 0
333 334 335 -336 0
336 -337 0
30 -337 0
-31 -337 0
-33 -337 0
64 -337 0
-336 -30 31 33 -64 337 0
-326 338 0
-327 338 0
-328 338 0
-337 338 0
326 327 328 337 -338 0
338 -339 0
71 -339 0
72 -339 0
-338 -71 -72 339 0
338 -340 0
71 -340 0
-72 -340 0
-338 -71 72 340 0
-325 341 0
-339 341 0
-340 341 0
325 339 340 -341 0
341 -342 0
24 -342 0
28 -342 0
75 -342 0
77 -342 0
78 -342 0
-341 -24 -28 -75 -77 -78 342 0
341 -343 0
24 -343 0
28 -343 0
75 -343 0
77 -343 0
-78 -343 0
81 -343 0
-341 -24 -28 -75 -77 78 -81 343 0
-342 344 0
-343 344 0
342 343 -344 0
344 -345 0
228 -345 0
-344 -228 345 0
-324 346 0
-345 346 0
324 345 -346 0
8 -347 0
346 -347 0
-8 -346 347 0
-8 -348 0
323 -348 0
8 -323 348 0
-347 349 0
-348 349 0
347 348 -349 0
349 -350 0
-91 -350 0
-349 91 350 0
349 -351 0
91 -351 0
-349 -91 351 0
-350 352 0
-351 352 0
350 351 -352 0
7 -353 0
352 -353 0
-7 -352 353 0
-7 -354 0
349 -354 0
7 -349 354 0
-353 355 0
-354 355 0
353 354 -355 0
355 -356 0
-96 -356 0
-355 96 356 0
355 -357 0
96 -357 0
-355 -96 357 0
-356 358 0
-357 358 0
356 357 -358 0
6 -359 0
358 -359 0
-6 -358 359 0
-6 -360 0
355 -360 0
6 -355 360 0
-359 361 0
-360 361 0
359 360 -361 0
361 -362 0
-101 -362 0
-361 101 362 0
361 -363 0
101 -363 0
-361 -101 363 0
-362 364 0
-363 364 0
362 363 -364 0
5 -365 0
364 -365 0
-5 -364 365 0
-5 -366 0
361 -366 0
5 -361 366 0
-365 367 0
-366 367 0
365 366 -367 0
4 -368 0
367 -368 0
-4 -367 368 0
108 -369 0
364 -369 0
-108 -364 369 0
-108 -370 0
361 -370 0
108 -361 370 0
-369 371 0
-370 371 0
369 370 -371 0
371 -372 0
-112 -372 0
-371 112 372 0
371 -373 0
112 -373 0
-371 -112 373 0
-372 374 0
-373 374 0
372 373 -374 0
107 -375 0
374 -375 0
-107 -374 375 0
371 -376 0
-116 -376 0
-371 116 376 0
371 -377 0
116 -377 0
-371 -116 377 0
-376 378 0
-377 378 0
376 377 -378 0
115 -379 0
378 -379 0
-115 -378 379 0
-115 -380 0
371 -380 0
115 -371 380 0
-379 381 0
-380 381 0
379 380 -381 0
-107 -382 0
381 -382 0
107 -381 382 0
-375 383 0
-382 383 0
375 382 -383 0
-4 -384 0
383 -384 0
4 -383 384 0
-368 385 0
-384 385 0
368 384 -385 0
385 -386 0
-125 -386 0
-385 125 386 0
385 -387 0
125 -387 0
-385 -125 387 0
-386 388 0
-387 388 0
386 387 -388 0
3 -389 0
388 -389 0
-3 -388 389 0
-3 -390 0
385 -390 0
3 -385 390 0
-389 391 0
-390 391 0
389 390 -391 0
391 -392 0
-130 -392 0
-391 130 392 0
391 -393 0
130 -393 0
-391 -130 393 0
-392 394 0
-393 394 0
392 393 -394 0
2 -395 0
394 -395 0
-2 -394 395 0
391 -396 0
-134 -396 0
-391 134 396 0
391 -397 0
134 -397 0
-391 -134 397 0
-396 398 0
-397 398 0
396 397 -398 0
133 -399 0
398 -399 0
-133 -398 399 0
-133 -400 0
391 -400 0
133 -391 400 0
-399 401 0
-400 401 0
399 400 -401 0
-2 -402 0
401 -402 0
2 -401 402 0
-395 403 0
-402 403 0
395 402 -403 0
403 -404 0
-141 -404 0
-403 141 404 0
403 -405 0
141 -405 0
142 -405 0
-403 -141 -142 405 0
403 -406 0
141 -406 0
-142 -406 0
-403 -141 142 406 0
-405 407 0
-406 407 0
405 406 -407 0
407 -408 0
145 -408 0
146 -408 0
-407 -145 -146 408 0
407 -409 0
145 -409 0
-146 -409 0
-407 -145 146 409 0
-408 410 0
-409 410 0
408 409 -410 0
410 -411 0
157 -411 0
158 -411 0
-410 -157 -158 411 0
410 -412 0
157 -412 0
-158 -412 0
-410 -157 158 412 0
-411 413 0
-412 413 0
411 412 -413 0
-163 414 0
-165 414 0
-167 414 0
-169 414 0
163 165 167 169 -414 0
413 -415 0
414 -415 0
-413 -414 415 0
413 -416 0
161 -416 0
-162 -416 0
-164 -416 0
-166 -416 0
-168 -416 0
-170 -416 0
181 -416 0
-413 -161 162 164 166 168 170 -181 416 0
413 -417 0
161 -417 0
-162 -417 0
-164 -417 0
-166 -417 0
-168 -417 0
-170 -417 0
-181 -417 0
-413 -161 162 164 166 168 170 181 417 0
-416 418 0
-417 418 0
416 417 -418 0
418 -419 0
184 -419 0
185 -419 0
-418 -184 -185 419 0
418 -420 0
184 -420 0
-185 -420 0
-418 -184 185 420 0
-419 421 0
-420 421 0
419 420 -421 0
421 -422 0
188 -422 0
189 -422 0
-421 -188 -189 422 0
421 -423 0
188 -423 0
-189 -423 0
-421 -188 189 423 0
413 -424 0
161 -424 0
-162 -424 0
-164 -424 0
-166 -424 0
-168 -424 0
170 -424 0
171 -424 0
-413 -161 162 164 166 168 -170 -171 424 0
413 -425 0
161 -425 0
-162 -425 0
-164 -425 0
-166 -425 0
-168 -425 0
170 -425 0
-171 -425 0
-413 -161 162 164 166 168 -170 171 425 0
-424 426 0
-425 426 0
424 425 -426 0
426 -427 0
174 -427 0
175 -427 0
-426 -174 -175 427 0
426 -428 0
174 -428 0
-175 -428 0
-426 -174 175 428 0
-427 429 0
-428 429 0
427 428 -429 0
429 -430 0
178 -430 0
179 -430 0
-429 -178 -179 430 0
429 -431 0
178 -431 0
-179 -431 0
-429 -178 179 431 0
-422 432 0
-423 432 0
-430 432 0
-431 432 0
422 423 430 431 -432 0
-195 433 0
-317 433 0
195 317 -433 0
432 -434 0
433 -434 0
-432 -433 434 0
-404 435 0
-415 435 0
-434 435 0
404 415 434 -435 0
444 -446 0
445 -446 0
-444 -445 446 0
444 -447 0
-445 -447 0
-444 445 447 0
444 448 0
-446 448 0
-447 448 0
-444 446 447 -448 0
-449 450 0
449 450 0
443 -451 0
448 -451 0
450 -451 0
-443 -448 -450 451 0
-443 -452 0
448 -452 0
443 -448 452 0
-451 453 0
-452 453 0
451 452 -453 0
-454 455 0
454 455 0
-456 457 0
456 457 0
459 -461 0
-460 -461 0
-459 460 461 0
459 462 0
-461 462 0
-459 461 -462 0
-463 464 0
463 464 0
464 -466 0
465 -466 0
-464 -465 466 0
-468 469 0
468 469 0
469 -471 0
-470 -471 0
-469 470 471 0
469 -473 0
470 -473 0
472 -473 0
-469 -470 -472 473 0
469 -476 0
470 -476 0
-472 -476 0
474 -476 0
475 -476 0
-469 -470 472 -474 -475 476 0
469 -478 0
470 -478 0
-472 -478 0
474 -478 0
-475 -478 0
-477 -478 0
-469 -470 472 -474 475 477 478 0
469 -480 0
470 -480 0
-472 -480 0
-474 -480 0
-479 -480 0
-469 -470 472 474 479 480 0
469 -482 0
470 -482 0
-472 -482 0
-474 -482 0
479 -482 0
481 -482 0
-469 -470 472 474 -479 -481 482 0
469 -484 0
470 -484 0
-472 -484 0
474 -484 0
-475 -484 0
477 -484 0
483 -484 0
-469 -470 472 -474 475 -477 -483 484 0
469 -486 0
470 -486 0
-472 -486 0
474 -486 0
-475 -486 0
477 -486 0
-483 -486 0
485 -486 0
-469 -470 472 -474 475 -477 483 -485 486 0
-487 488 0
487 488 0
469 -490 0
470 -490 0
-472 -490 0
-474 -490 0
479 -490 0
-481 -490 0
488 -490 0
489 -490 0
-469 -470 472 474 -479 481 -488 -489 490 0
469 -491 0
470 -491 0
-472 -491 0
-474 -491 0
479 -491 0
-481 -491 0
488 -491 0
-489 -491 0
-469 -470 472 474 -479 481 -488 489 491 0
492 -494 0
493 -494 0
-492 -493 494 0
492 -495 0
-493 -495 0
-492 493 495 0
492 496 0
-494 496 0
-495 496 0
-492 494 495 -496 0
469 -497 0
470 -497 0
-472 -497 0
474 -497 0
-475 -497 0
477 -497 0
-483 -497 0
-485 -497 0
496 -497 0
-469 -470 472 -474 475 -477 483 485 -496 497 0
-471 498 0
-473 498 0
-476 498 0
-478 498 0
-480 498 0
-482 498 0
-484 498 0
-486 498 0
-490 498 0
-491 498 0
-497 498 0
471 473 476 478 480 482 484 486 490 491 497 -498 0
464 -499 0
-465 -499 0
-467 -499 0
498 -499 0
-464 465 467 -498 499 0
464 -501 0
-465 -501 0
467 -501 0
-500 -501 0
-464 465 -467 500 501 0
464 -503 0
-465 -503 0
467 -503 0
500 -503 0
-502 -503 0
-464 465 -467 -500 502 503 0
464 -504 0
-465 -504 0
467 -504 0
500 -504 0
502 -504 0
-464 465 -467 -500 -502 504 0
-499 505 0
-501 505 0
-503 505 0
-504 505 0
499 501 503 504 -505 0
505 -507 0
506 -507 0
-505 -506 507 0
505 -508 0
-506 -508 0
-505 506 508 0
-466 509 0
-507 509 0
-508 509 0
466 507 508 -509 0
-510 511 0
510 511 0
458 -513 0
462 -513 0
509 -513 0
511 -513 0
512 -513 0
-458 -462 -509 -511 -512 513 0
-514 515 0
514 515 0
458 -516 0
462 -516 0
509 -516 0
511 -516 0
-512 -516 0
515 -516 0
-458 -462 -509 -511 512 -515 516 0
-513 517 0
-516 517 0
513 516 -517 0
517 -519 0
518 -519 0
-517 -518 519 0
517 -520 0
-518 -520 0
-517 518 520 0
458 521 0
-519 521 0
-520 521 0
-458 519 520 -521 0
442 -522 0
453 -522 0
455 -522 0
457 -522 0
521 -522 0
-442 -453 -455 -457 -521 522 0
-442 -523 0
453 -523 0
455 -523 0
457 -523 0
442 -453 -455 -457 523 0
-522 524 0
-523 524 0
522 523 -524 0
525 526 0
-525 526 0
441 -527 0
524 -527 0
526 -527 0
-441 -524 -526 527 0
-441 -528 0
524 -528 0
441 -524 528 0
-527 529 0
-528 529 0
527 528 -529 0
530 531 0
-530 531 0
440 -532 0
529 -532 0
531 -532 0
-440 -529 -531 532 0
-440 -533 0
529 -533 0
440 -529 533 0
-532 534 0
-533 534 0
532 533 -534 0
535 536 0
-535 536 0
439 -537 0
534 -537 0
536 -537 0
-439 -534 -536 537 0
-439 -538 0
534 -538 0
439 -534 538 0
-537 539 0
-538 539 0
537 538 -539 0
438 -540 0
539 -540 0
-438 -539 540 0
542 -543 0
534 -543 0
536 -543 0
-542 -534 -536 543 0
-542 -544 0
534 -544 0
542 -534 544 0
-543 545 0
-544 545 0
543 544 -545 0
546 547 0
-546 547 0
541 -548 0
545 -548 0
547 -548 0
-541 -545 -547 548 0
550 551 0
-550 551 0
549 -552 0
545 -552 0
551 -552 0
-549 -545 -551 552 0
-549 -553 0
545 -553 0
549 -545 553 0
-552 554 0
-553 554 0
552 553 -554 0
-541 -555 0
554 -555 0
541 -554 555 0
-548 556 0
-555 556 0
548 555 -556 0
-438 -557 0
556 -557 0
438 -556 557 0
-540 558 0
-557 558 0
540 557 -558 0
559 560 0
-559 560 0
437 -561 0
558 -561 0
560 -561 0
-437 -558 -560 561 0
-437 -562 0
558 -562 0
437 -558 562 0
-561 563 0
-562 563 0
561 562 -563 0
564 565 0
-564 565 0
436 -566 0
563 -566 0
565 -566 0
-436 -563 -565 566 0
568 569 0
-568 569 0
567 -570 0
563 -570 0
569 -570 0
-567 -563 -569 570 0
-567 -571 0
563 -571 0
567 -563 571 0
-570 572 0
-571 572 0
570 571 -572 0
-436 -573 0
572 -573 0
436 -572 573 0
-566 574 0
-573 574 0
566 573 -574 0
575 -577 0
576 -577 0
-575 -576 577 0
575 -578 0
-576 -578 0
-575 576 578 0
-577 579 0
-578 579 0
577 578 -579 0
579 -581 0
580 -581 0
-579 -580 581 0
579 -582 0
-580 -582 0
-579 580 582 0
-581 583 0
-582 583 0
581 582 -583 0
583 -586 0
-584 -586 0
585 -586 0
-583 584 -585 586 0
583 -587 0
-584 -587 0
-585 -587 0
-583 584 585 587 0
583 -589 0
584 -589 0
588 -589 0
-583 -584 -588 589 0
583 -590 0
584 -590 0
-588 -590 0
-583 -584 588 590 0
-586 591 0
-587 591 0
-589 591 0
-590 591 0
586 587 589 590 -591 0
591 -593 0
592 -593 0
-591 -592 593 0
591 -594 0
-592 -594 0
-591 592 594 0
-593 595 0
-594 595 0
593 594 -595 0
595 -597 0
596 -597 0
-595 -596 597 0
595 -599 0
-596 -599 0
598 -599 0
-595 596 -598 599 0
595 -601 0
-596 -601 0
-598 -601 0
600 -601 0
-595 596 598 -600 601 0
595 -603 0
-596 -603 0
-598 -603 0
-600 -603 0
602 -603 0
-595 596 598 600 -602 603 0
595 -606 0
-596 -606 0
-598 -606 0
-600 -606 0
-602 -606 0
604 -606 0
605 -606 0
-595 596 598 600 602 -604 -605 606 0
595 -607 0
-596 -607 0
-598 -607 0
-600 -607 0
-602 -607 0
604 -607 0
-605 -607 0
-595 596 598 600 602 -604 605 607 0
-606 608 0
-607 608 0
606 607 -608 0
608 -610 0
609 -610 0
-608 -609 610 0
608 -611 0
-609 -611 0
-608 609 611 0
-610 612 0
-611 612 0
610 611 -612 0
612 -614 0
613 -614 0
-612 -613 614 0
595 -616 0
-596 -616 0
-598 -616 0
-600 -616 0
-602 -616 0
-604 -616 0
615 -616 0
-595 596 598 600 602 604 -615 616 0
595 -617 0
-596 -617 0
-598 -617 0
-600 -617 0
-602 -617 0
-604 -617 0
-615 -617 0
-595 596 598 600 602 604 615 617 0
-616 618 0
-617 618 0
616 617 -618 0
618 -620 0
619 -620 0
-618 -619 620 0
618 -621 0
-619 -621 0
-618 619 621 0
-620 622 0
-621 622 0
620 621 -622 0
622 -624 0
623 -624 0
-622 -623 624 0
612 -625 0
-613 -625 0
-612 613 625 0
622 -626 0
-623 -626 0
-622 623 626 0
-614 627 0
-624 627 0
-625 627 0
-626 627 0
614 624 625 626 -627 0
627 -629 0
-628 -629 0
-627 628 629 0
627 -631 0
628 -631 0
630 -631 0
-627 -628 -630 631 0
627 -632 0
628 -632 0
-630 -632 0
-627 -628 630 632 0
575 633 0
-597 633 0
-599 633 0
-601 633 0
-603 633 0
-629 633 0
-631 633 0
-632 633 0
-575 597 599 601 603 629 631 632 -633 0
-634 635 0
634 635 0
574 -636 0
633 -636 0
635 -636 0
-574 -633 -635 636 0
-449 637 0
449 637 0
443 -638 0
637 -638 0
-443 -637 638 0
-638 639 0
443 639 0
638 -443 -639 0
639 -640 0
-458 -640 0
-639 458 640 0
639 -641 0
464 -641 0
465 -641 0
-639 -464 -465 641 0
639 -642 0
464 -642 0
-465 -642 0
467 -642 0
500 -642 0
-502 -642 0
-639 -464 465 -467 -500 502 642 0
639 -643 0
464 -643 0
-465 -643 0
467 -643 0
500 -643 0
502 -643 0
-639 -464 465 -467 -500 -502 643 0
639 -644 0
464 -644 0
-465 -644 0
467 -644 0
-500 -644 0
-639 -464 465 -467 500 644 0
639 -645 0
468 -645 0
-639 -468 645 0
639 -646 0
-468 -646 0
-639 468 646 0
-645 647 0
-646 647 0
645 646 -647 0
-471 648 0
-473 648 0
-476 648 0
-478 648 0
-480 648 0
-482 648 0
-484 648 0
-486 648 0
471 473 476 478 480 482 484 486 -648 0
647 -649 0
648 -649 0
-647 -648 649 0
647 -650 0
469 -650 0
470 -650 0
-472 -650 0
474 -650 0
-475 -650 0
477 -650 0
-483 -650 0
-485 -650 0
496 -650 0
-647 -469 -470 472 -474 475 -477 483 485 -496 650 0
-490 651 0
-491 651 0
490 491 -651 0
647 -652 0
651 -652 0
-647 -651 652 0
-649 653 0
-650 653 0
-652 653 0
649 650 652 -653 0
653 -654 0
464 -654 0
-465 -654 0
-467 -654 0
498 -654 0
-653 -464 465 467 -498 654 0
-642 655 0
-643 655 0
-644 655 0
-654 655 0
642 643 644 654 -655 0
655 -656 0
505 -656 0
506 -656 0
-655 -505 -506 656 0
655 -657 0
505 -657 0
-506 -657 0
-655 -505 506 657 0
-641 658 0
-656 658 0
-657 658 0
641 656 657 -658 0
658 -659 0
458 -659 0
462 -659 0
509 -659 0
511 -659 0
512 -659 0
-658 -458 -462 -509 -511 -512 659 0
658 -660 0
458 -660 0
462 -660 0
509 -660 0
511 -660 0
-512 -660 0
515 -660 0
-658 -458 -462 -509 -511 512 -515 660 0
-659 661 0
-660 661 0
659 660 -661 0
-519 662 0
-520 662 0
519 520 -662 0
661 -663 0
662 -663 0
-661 -662 663 0
-640 664 0
-663 664 0
640 663 -664 0
442 -665 0
664 -665 0
-442 -664 665 0
-442 -666 0
639 -666 0
442 -639 666 0
-665 667 0
-666 667 0
665 666 -667 0
667 -668 0
-525 -668 0
-667 525 668 0
667 -669 0
525 -669 0
-667 -525 669 0
-668 670 0
-669 670 0
668 669 -670 0
441 -671 0
670 -671 0
-441 -670 671 0
-441 -672 0
667 -672 0
441 -667 672 0
-671 673 0
-672 673 0
671 672 -673 0
673 -674 0
-530 -674 0
-673 530 674 0
673 -675 0
530 -675 0
-673 -530 675 0
-674 676 0
-675 676 0
674 675 -676 0
440 -677 0
676 -677 0
-440 -676 677 0
-440 -678 0
673 -678 0
440 -673 678 0
-677 679 0
-678 679 0
677 678 -679 0
679 -680 0
-535 -680 0
-679 535 680 0
679 -681 0
535 -681 0
-679 -535 681 0
-680 682 0
-681 682 0
680 681 -682 0
439 -683 0
682 -683 0
-439 -682 683 0
-439 -684 0
679 -684 0
439 -679 684 0
-683 685 0
-684 685 0
683 684 -685 0
438 -686 0
685 -686 0
-438 -685 686 0
542 -687 0
682 -687 0
-542 -682 687 0
-542 -688 0
679 -688 0
542 -679 688 0
-687 689 0
-688 689 0
687 688 -689 0
689 -690 0
-546 -690 0
-689 546 690 0
689 -691 0
546 -691 0
-689 -546 691 0
-690 692 0
-691 692 0
690 691 -692 0
541 -693 0
692 -693 0
-541 -692 693 0
689 -694 0
-550 -694 0
-689 550 694 0
689 -695 0
550 -695 0
-689 -550 695 0
-694 696 0
-695 696 0
694 695 -696 0
549 -697 0
696 -697 0
-549 -696 697 0
-549 -698 0
689 -698 0
549 -689 698 0
-697 699 0
-698 699 0
697 698 -699 0
-541 -700 0
699 -700 0
541 -699 700 0
-693 701 0
-700 701 0
693 700 -701 0
-438 -702 0
701 -702 0
438 -701 702 0
-686 703 0
-702 703 0
686 702 -703 0
703 -704 0
-559 -704 0
-703 559 704 0
703 -705 0
559 -705 0
-703 -559 705 0
-704 706 0
-705 706 0
704 705 -706 0
437 -707 0
706 -707 0
-437 -706 707 0
-437 -708 0
703 -708 0
437 -703 708 0
-707 709 0
-708 709 0
707 708 -709 0
709 -710 0
-564 -710 0
-709 564 710 0
709 -711 0
564 -711 0
-709 -564 711 0
-710 712 0
-711 712 0
710 711 -712 0
436 -713 0
712 -713 0
-436 -712 713 0
709 -714 0
-568 -714 0
-709 568 714 0
709 -715 0
568 -715 0
-709 -568 715 0
-714 716 0
-715 716 0
714 715 -716 0
567 -717 0
716 -717 0
-567 -716 717 0
-567 -718 0
709 -718 0
567 -709 718 0
-717 719 0
-718 719 0
717 718 -719 0
-436 -720 0
719 -720 0
436 -719 720 0
-713 721 0
-720 721 0
713 720 -721 0
721 -722 0
-575 -722 0
-721 575 722 0
721 -723 0
575 -723 0
576 -723 0
-721 -575 -576 723 0
721 -724 0
575 -724 0
-576 -724 0
-721 -575 576 724 0
-723 725 0
-724 725 0
723 724 -725 0
725 -726 0
579 -726 0
580 -726 0
-725 -579 -580 726 0
725 -727 0
579 -727 0
-580 -727 0
-725 -579 580 727 0
-726 728 0
-727 728 0
726 727 -728 0
728 -729 0
591 -729 0
592 -729 0
-728 -591 -592 729 0
728 -730 0
591 -730 0
-592 -730 0
-728 -591 592 730 0
-729 731 0
-730 731 0
729 730 -731 0
-597 732 0
-599 732 0
-601 732 0
-603 732 0
597 599 601 603 -732 0
731 -733 0
732 -733 0
-731 -732 733 0
731 -734 0
595 -734 0
-596 -734 0
-598 -734 0
-600 -734 0
-602 -734 0
-604 -734 0
615 -734 0
-731 -595 596 598 600 602 604 -615 734 0
731 -735 0
595 -735 0
-596 -735 0
-598 -735 0
-600 -735 0
-602 -735 0
-604 -735 0
-615 -735 0
-731 -595 596 598 600 602 604 615 735 0
-734 736 0
-735 736 0
734 735 -736 0
736 -737 0
618 -737 0
619 -737 0
-736 -618 -619 737 0
736 -738 0
618 -738 0
-619 -738 0
-736 -618 619 738 0
-737 739 0
-738 739 0
737 738 -739 0
739 -740 0
622 -740 0
623 -740 0
-739 -622 -623 740 0
739 -741 0
622 -741 0
-623 -741 0
-739 -622 623 741 0
731 -742 0
595 -742 0
-596 -742 0
-598 -742 0
-600 -742 0
-602 -742 0
604 -742 0
605 -742 0
-731 -595 596 598 600 602 -604 -605 742 0
731 -743 0
595 -743 0
-596 -743 0
-598 -743 0
-600 -743 0
-602 -743 0
604 -743 0
-605 -743 0
-731 -595 596 598 600 602 -604 605 743 0
-742 744 0
-743 744 0
742 743 -744 0
744 -745 0
608 -745 0
609 -745 0
-744 -608 -609 745 0
744 -746 0
608 -746 0
-609 -746 0
-744 -608 609 746 0
-745 747 0
-746 747 0
745 746 -747 0
747 -748 0
612 -748 0
613 -748 0
-747 -612 -613 748 0
747 -749 0
612 -749 0
-613 -749 0
-747 -612 613 749 0
-740 750 0
-741 750 0
-748 750 0
-749 750 0
740 741 748 749 -750 0
-631 751 0
-632 751 0
631 632 -751 0
-629 752 0
-751 752 0
629 751 -752 0
750 -753 0
752 -753 0
-750 -752 753 0
-722 754 0
-733 754 0
-753 754 0
722 733 753 -754 0
-449 755 0
449 755 0
443 -756 0
755 -756 0
-443 -755 756 0
-756 757 0
443 757 0
756 -443 -757 0
757 -758 0
-458 -758 0
-757 458 758 0
757 -759 0
464 -759 0
465 -759 0
-757 -464 -465 759 0
757 -760 0
464 -760 0
-465 -760 0
467 -760 0
500 -760 0
-502 -760 0
-757 -464 465 -467 -500 502 760 0
757 -761 0
464 -761 0
-465 -761 0
467 -761 0
500 -761 0
502 -761 0
-757 -464 465 -467 -500 -502 761 0
757 -762 0
464 -762 0
-465 -762 0
467 -762 0
-500 -762 0
-757 -464 465 -467 500 762 0
757 -763 0
468 -763 0
-757 -468 763 0
757 -764 0
-468 -764 0
-757 468 764 0
-763 765 0
-764 765 0
763 764 -765 0
-471 766 0
-473 766 0
-476 766 0
-478 766 0
-480 766 0
-482 766 0
-484 766 0
-486 766 0
471 473 476 478 480 482 484 486 -766 0
765 -767 0
766 -767 0
-765 -766 767 0
765 -768 0
469 -768 0
470 -768 0
-472 -768 0
474 -768 0
-475 -768 0
477 -768 0
-483 -768 0
-485 -768 0
496 -768 0
-765 -469 -470 472 -474 475 -477 483 485 -496 768 0
765 -769 0
651 -769 0
-765 -651 769 0
-767 770 0
-768 770 0
-769 770 0
767 768 769 -770 0
770 -771 0
464 -771 0
-465 -771 0
-467 -771 0
498 -771 0
-770 -464 465 467 -498 771 0
-760 772 0
-761 772 0
-762 772 0
-771 772 0
760 761 762 771 -772 0
772 -773 0
505 -773 0
506 -773 0
-772 -505 -506 773 0
772 -774 0
505 -774 0
-506 -774 0
-772 -505 506 774 0
-759 775 0
-773 775 0
-774 775 0
759 773 774 -775 0
775 -776 0
458 -776 0
462 -776 0
509 -776 0
511 -776 0
512 -776 0
-775 -458 -462 -509 -511 -512 776 0
775 -777 0
458 -777 0
462 -777 0
509 -777 0
511 -777 0
-512 -777 0
515 -777 0
-775 -458 -462 -509 -511 512 -515 777 0
-776 778 0
-777 778 0
776 777 -778 0
778 -779 0
662 -779 0
-778 -662 779 0
-758 780 0
-779 780 0
758 779 -780 0
442 -781 0
780 -781 0
-442 -780 781 0
-442 -782 0
757 -782 0
442 -757 782 0
-781 783 0
-782 783 0
781 782 -783 0
783 -784 0
-525 -784 0
-783 525 784 0
783 -785 0
525 -785 0
-783 -525 785 0
-784 786 0
-785 786 0
784 785 -786 0
441 -787 0
786 -787 0
-441 -786 787 0
-441 -788 0
783 -788 0
441 -783 788 0
-787 789 0
-788 789 0
787 788 -789 0
789 -790 0
-530 -790 0
-789 530 790 0
789 -791 0
530 -791 0
-789 -530 791 0
-790 792 0
-791 792 0
790 791 -792 0
440 -793 0
792 -793 0
-440 -792 793 0
-440 -794 0
789 -794 0
440 -789 794 0
-793 795 0
-794 795 0
793 794 -795 0
795 -796 0
-535 -796 0
-795 535 796 0
795 -797 0
535 -797 0
-795 -535 797 0
-796 798 0
-797 798 0
796 797 -798 0
439 -799 0
798 -799 0
-439 -798 799 0
-439 -800 0
795 -800 0
439 -795 800 0
-799 801 0
-800 801 0
799 800 -801 0
438 -802 0
801 -802 0
-438 -801 802 0
542 -803 0
798 -803 0
-542 -798 803 0
-542 -804 0
795 -804 0
542 -795 804 0
-803 805 0
-804 805 0
803 804 -805 0
805 -806 0
-546 -806 0
-805 546 806 0
805 -807 0
546 -807 0
-805 -546 807 0
-806 808 0
-807 808 0
806 807 -808 0
541 -809 0
808 -809 0
-541 -808 809 0
805 -810 0
-550 -810 0
-805 550 810 0
805 -811 0
550 -811 0
-805 -550 811 0
-810 812 0
-811 812 0
810 811 -812 0
549 -813 0
812 -813 0
-549 -812 813 0
-549 -814 0
805 -814 0
549 -805 814 0
-813 815 0
-814 815 0
813 814 -815 0
-541 -816 0
815 -816 0
541 -815 816 0
-809 817 0
-816 817 0
809 816 -817 0
-438 -818 0
817 -818 0
438 -817 818 0
-802 819 0
-818 819 0
802 818 -819 0
819 -820 0
-559 -820 0
-819 559 820 0
819 -821 0
559 -821 0
-819 -559 821 0
-820 822 0
-821 822 0
820 821 -822 0
437 -823 0
822 -823 0
-437 -822 823 0
-437 -824 0
819 -824 0
437 -819 824 0
-823 825 0
-824 825 0
823 824 -825 0
825 -826 0
-564 -826 0
-825 564 826 0
825 -827 0
564 -827 0
-825 -564 827 0
-826 828 0
-827 828 0
826 827 -828 0
436 -829 0
828 -829 0
-436 -828 829 0
825 -830 0
-568 -830 0
-825 568 830 0
825 -831 0
568 -831 0
-825 -568 831 0
-830 832 0
-831 832 0
830 831 -832 0
567 -833 0
832 -833 0
-567 -832 833 0
-567 -834 0
825 -834 0
567 -825 834 0
-833 835 0
-834 835 0
833 834 -835 0
-436 -836 0
835 -836 0
436 -835 836 0
-829 837 0
-836 837 0
829 836 -837 0
837 -838 0
-575 -838 0
-837 575 838 0
837 -839 0
575 -839 0
576 -839 0
-837 -575 -576 839 0
837 -840 0
575 -840 0
-576 -840 0
-837 -575 576 840 0
-839 841 0
-840 841 0
839 840 -841 0
841 -842 0
579 -842 0
580 -842 0
-841 -579 -580 842 0
841 -843 0
579 -843 0
-580 -843 0
-841 -579 580 843 0
-842 844 0
-843 844 0
842 843 -844 0
844 -845 0
591 -845 0
592 -845 0
-844 -591 -592 845 0
844 -846 0
591 -846 0
-592 -846 0
-844 -591 592 846 0
-845 847 0
-846 847 0
845 846 -847 0
-597 848 0
-599 848 0
-601 848 0
-603 848 0
597 599 601 603 -848 0
847 -849 0
848 -849 0
-847 -848 849 0
847 -850 0
595 -850 0
-596 -850 0
-598 -850 0
-600 -850 0
-602 -850 0
-604 -850 0
615 -850 0
-847 -595 596 598 600 602 604 -615 850 0
847 -851 0
595 -851 0
-596 -851 0
-598 -851 0
-600 -851 0
-602 -851 0
-604 -851 0
-615 -851 0
-847 -595 596 598 600 602 604 615 851 0
-850 852 0
-851 852 0
850 851 -852 0
852 -853 0
618 -853 0
619 -853 0
-852 -618 -619 853 0
852 -854 0
618 -854 0
-619 -854 0
-852 -618 619 854 0
-853 855 0
-854 855 0
853 854 -855 0
855 -856 0
622 -856 0
623 -856 0
-855 -622 -623 856 0
855 -857 0
622 -857 0
-623 -857 0
-855 -622 623 857 0
847 -858 0
595 -858 0
-596 -858 0
-598 -858 0
-600 -858 0
-602 -858 0
604 -858 0
605 -858 0
-847 -595 596 598 600 602 -604 -605 858 0
847 -859 0
595 -859 0
-596 -859 0
-598 -859 0
-600 -859 0
-602 -859 0
604 -859 0
-605 -859 0
-847 -595 596 598 600 602 -604 605 859 0
-858 860 0
-859 860 0
858 859 -860 0
860 -861 0
608 -861 0
609 -861 0
-860 -608 -609 861 0
860 -862 0
608 -862 0
-609 -862 0
-860 -608 609 862 0
-861 863 0
-862 863 0
861 862 -863 0
863 -864 0
612 -864 0
613 -864 0
-863 -612 -613 864 0
863 -865 0
612 -865 0
-613 -865 0
-863 -612 613 865 0
-856 866 0
-857 866 0
-864 866 0
-865 866 0
856 857 864 865 -866 0
-629 867 0
-751 867 0
629 751 -867 0
866 -868 0
867 -868 0
-866 -867 868 0
-838 869 0
-849 869 0
-868 869 0
838 849 868 -869 0
-754 -320 -870 0
754 320 -870 0
-754 320 870 0
754 -320 870 0
-869 -435 -871 0
869 435 -871 0
-869 435 871 0
869 -435 871 0
-870 -872 0
-871 -872 0
636 -872 0
870 871 -636 872 0
-202 872 0
